c File: flat75_3_0.col
c
c SOURCE: Joseph Culberson (joe@cs.ualberta.ca)
c DESCRIPTION: Quasi-random coloring problem
c              generated with flatness = 0
c                             probability = 0.096
c                             known coloring = 3
c                             random seed = 1068
c              Creation Date:  Wed Feb 24 10:42:07 1999
c Maximum degree = 8 Minimum degree = 0
c COLOR VERIFICATION: Using the permuted order
c under simple greedy yields the specified
c coloring number
c Color = 3 specified partitions = 3
c p edge 75 180
c cnf created by edge2cnf
p cnf 225 840
-1 -2 0
-1 -3 0
-2 -3 0
1 2 3 0
-4 -5 0
-4 -6 0
-5 -6 0
4 5 6 0
-7 -8 0
-7 -9 0
-8 -9 0
7 8 9 0
-10 -11 0
-10 -12 0
-11 -12 0
10 11 12 0
-13 -14 0
-13 -15 0
-14 -15 0
13 14 15 0
-16 -17 0
-16 -18 0
-17 -18 0
16 17 18 0
-19 -20 0
-19 -21 0
-20 -21 0
19 20 21 0
-22 -23 0
-22 -24 0
-23 -24 0
22 23 24 0
-25 -26 0
-25 -27 0
-26 -27 0
25 26 27 0
-28 -29 0
-28 -30 0
-29 -30 0
28 29 30 0
-31 -32 0
-31 -33 0
-32 -33 0
31 32 33 0
-34 -35 0
-34 -36 0
-35 -36 0
34 35 36 0
-37 -38 0
-37 -39 0
-38 -39 0
37 38 39 0
-40 -41 0
-40 -42 0
-41 -42 0
40 41 42 0
-43 -44 0
-43 -45 0
-44 -45 0
43 44 45 0
-46 -47 0
-46 -48 0
-47 -48 0
46 47 48 0
-49 -50 0
-49 -51 0
-50 -51 0
49 50 51 0
-52 -53 0
-52 -54 0
-53 -54 0
52 53 54 0
-55 -56 0
-55 -57 0
-56 -57 0
55 56 57 0
-58 -59 0
-58 -60 0
-59 -60 0
58 59 60 0
-61 -62 0
-61 -63 0
-62 -63 0
61 62 63 0
-64 -65 0
-64 -66 0
-65 -66 0
64 65 66 0
-67 -68 0
-67 -69 0
-68 -69 0
67 68 69 0
-70 -71 0
-70 -72 0
-71 -72 0
70 71 72 0
-73 -74 0
-73 -75 0
-74 -75 0
73 74 75 0
-76 -77 0
-76 -78 0
-77 -78 0
76 77 78 0
-79 -80 0
-79 -81 0
-80 -81 0
79 80 81 0
-82 -83 0
-82 -84 0
-83 -84 0
82 83 84 0
-85 -86 0
-85 -87 0
-86 -87 0
85 86 87 0
-88 -89 0
-88 -90 0
-89 -90 0
88 89 90 0
-91 -92 0
-91 -93 0
-92 -93 0
91 92 93 0
-94 -95 0
-94 -96 0
-95 -96 0
94 95 96 0
-97 -98 0
-97 -99 0
-98 -99 0
97 98 99 0
-100 -101 0
-100 -102 0
-101 -102 0
100 101 102 0
-103 -104 0
-103 -105 0
-104 -105 0
103 104 105 0
-106 -107 0
-106 -108 0
-107 -108 0
106 107 108 0
-109 -110 0
-109 -111 0
-110 -111 0
109 110 111 0
-112 -113 0
-112 -114 0
-113 -114 0
112 113 114 0
-115 -116 0
-115 -117 0
-116 -117 0
115 116 117 0
-118 -119 0
-118 -120 0
-119 -120 0
118 119 120 0
-121 -122 0
-121 -123 0
-122 -123 0
121 122 123 0
-124 -125 0
-124 -126 0
-125 -126 0
124 125 126 0
-127 -128 0
-127 -129 0
-128 -129 0
127 128 129 0
-130 -131 0
-130 -132 0
-131 -132 0
130 131 132 0
-133 -134 0
-133 -135 0
-134 -135 0
133 134 135 0
-136 -137 0
-136 -138 0
-137 -138 0
136 137 138 0
-139 -140 0
-139 -141 0
-140 -141 0
139 140 141 0
-142 -143 0
-142 -144 0
-143 -144 0
142 143 144 0
-145 -146 0
-145 -147 0
-146 -147 0
145 146 147 0
-148 -149 0
-148 -150 0
-149 -150 0
148 149 150 0
-151 -152 0
-151 -153 0
-152 -153 0
151 152 153 0
-154 -155 0
-154 -156 0
-155 -156 0
154 155 156 0
-157 -158 0
-157 -159 0
-158 -159 0
157 158 159 0
-160 -161 0
-160 -162 0
-161 -162 0
160 161 162 0
-163 -164 0
-163 -165 0
-164 -165 0
163 164 165 0
-166 -167 0
-166 -168 0
-167 -168 0
166 167 168 0
-169 -170 0
-169 -171 0
-170 -171 0
169 170 171 0
-172 -173 0
-172 -174 0
-173 -174 0
172 173 174 0
-175 -176 0
-175 -177 0
-176 -177 0
175 176 177 0
-178 -179 0
-178 -180 0
-179 -180 0
178 179 180 0
-181 -182 0
-181 -183 0
-182 -183 0
181 182 183 0
-184 -185 0
-184 -186 0
-185 -186 0
184 185 186 0
-187 -188 0
-187 -189 0
-188 -189 0
187 188 189 0
-190 -191 0
-190 -192 0
-191 -192 0
190 191 192 0
-193 -194 0
-193 -195 0
-194 -195 0
193 194 195 0
-196 -197 0
-196 -198 0
-197 -198 0
196 197 198 0
-199 -200 0
-199 -201 0
-200 -201 0
199 200 201 0
-202 -203 0
-202 -204 0
-203 -204 0
202 203 204 0
-205 -206 0
-205 -207 0
-206 -207 0
205 206 207 0
-208 -209 0
-208 -210 0
-209 -210 0
208 209 210 0
-211 -212 0
-211 -213 0
-212 -213 0
211 212 213 0
-214 -215 0
-214 -216 0
-215 -216 0
214 215 216 0
-217 -218 0
-217 -219 0
-218 -219 0
217 218 219 0
-220 -221 0
-220 -222 0
-221 -222 0
220 221 222 0
-223 -224 0
-223 -225 0
-224 -225 0
223 224 225 0
-112 -1 0
-113 -2 0
-114 -3 0
-133 -1 0
-134 -2 0
-135 -3 0
-214 -1 0
-215 -2 0
-216 -3 0
-19 -4 0
-20 -5 0
-21 -6 0
-28 -4 0
-29 -5 0
-30 -6 0
-193 -4 0
-194 -5 0
-195 -6 0
-46 -7 0
-47 -8 0
-48 -9 0
-97 -7 0
-98 -8 0
-99 -9 0
-133 -7 0
-134 -8 0
-135 -9 0
-151 -7 0
-152 -8 0
-153 -9 0
-199 -7 0
-200 -8 0
-201 -9 0
-76 -13 0
-77 -14 0
-78 -15 0
-100 -13 0
-101 -14 0
-102 -15 0
-118 -13 0
-119 -14 0
-120 -15 0
-130 -13 0
-131 -14 0
-132 -15 0
-145 -13 0
-146 -14 0
-147 -15 0
-22 -16 0
-23 -17 0
-24 -18 0
-85 -16 0
-86 -17 0
-87 -18 0
-103 -16 0
-104 -17 0
-105 -18 0
-28 -19 0
-29 -20 0
-30 -21 0
-163 -19 0
-164 -20 0
-165 -21 0
-193 -19 0
-194 -20 0
-195 -21 0
-79 -22 0
-80 -23 0
-81 -24 0
-94 -22 0
-95 -23 0
-96 -24 0
-214 -22 0
-215 -23 0
-216 -24 0
-85 -25 0
-86 -26 0
-87 -27 0
-106 -25 0
-107 -26 0
-108 -27 0
-157 -25 0
-158 -26 0
-159 -27 0
-172 -25 0
-173 -26 0
-174 -27 0
-187 -25 0
-188 -26 0
-189 -27 0
-199 -25 0
-200 -26 0
-201 -27 0
-52 -28 0
-53 -29 0
-54 -30 0
-79 -28 0
-80 -29 0
-81 -30 0
-130 -28 0
-131 -29 0
-132 -30 0
-214 -28 0
-215 -29 0
-216 -30 0
-223 -28 0
-224 -29 0
-225 -30 0
-43 -31 0
-44 -32 0
-45 -33 0
-142 -31 0
-143 -32 0
-144 -33 0
-139 -34 0
-140 -35 0
-141 -36 0
-169 -34 0
-170 -35 0
-171 -36 0
-184 -34 0
-185 -35 0
-186 -36 0
-202 -34 0
-203 -35 0
-204 -36 0
-211 -34 0
-212 -35 0
-213 -36 0
-214 -34 0
-215 -35 0
-216 -36 0
-52 -37 0
-53 -38 0
-54 -39 0
-64 -37 0
-65 -38 0
-66 -39 0
-136 -37 0
-137 -38 0
-138 -39 0
-142 -37 0
-143 -38 0
-144 -39 0
-154 -37 0
-155 -38 0
-156 -39 0
-187 -37 0
-188 -38 0
-189 -39 0
-196 -37 0
-197 -38 0
-198 -39 0
-70 -40 0
-71 -41 0
-72 -42 0
-121 -40 0
-122 -41 0
-123 -42 0
-139 -40 0
-140 -41 0
-141 -42 0
-145 -40 0
-146 -41 0
-147 -42 0
-178 -40 0
-179 -41 0
-180 -42 0
-190 -40 0
-191 -41 0
-192 -42 0
-55 -43 0
-56 -44 0
-57 -45 0
-79 -43 0
-80 -44 0
-81 -45 0
-100 -43 0
-101 -44 0
-102 -45 0
-133 -43 0
-134 -44 0
-135 -45 0
-211 -43 0
-212 -44 0
-213 -45 0
-55 -46 0
-56 -47 0
-57 -48 0
-61 -46 0
-62 -47 0
-63 -48 0
-79 -46 0
-80 -47 0
-81 -48 0
-220 -46 0
-221 -47 0
-222 -48 0
-52 -49 0
-53 -50 0
-54 -51 0
-79 -49 0
-80 -50 0
-81 -51 0
-94 -49 0
-95 -50 0
-96 -51 0
-103 -49 0
-104 -50 0
-105 -51 0
-112 -49 0
-113 -50 0
-114 -51 0
-118 -49 0
-119 -50 0
-120 -51 0
-205 -49 0
-206 -50 0
-207 -51 0
-85 -52 0
-86 -53 0
-87 -54 0
-172 -52 0
-173 -53 0
-174 -54 0
-205 -52 0
-206 -53 0
-207 -54 0
-76 -55 0
-77 -56 0
-78 -57 0
-148 -55 0
-149 -56 0
-150 -57 0
-211 -55 0
-212 -56 0
-213 -57 0
-115 -58 0
-116 -59 0
-117 -60 0
-124 -58 0
-125 -59 0
-126 -60 0
-196 -58 0
-197 -59 0
-198 -60 0
-94 -61 0
-95 -62 0
-96 -63 0
-157 -61 0
-158 -62 0
-159 -63 0
-169 -61 0
-170 -62 0
-171 -63 0
-172 -61 0
-173 -62 0
-174 -63 0
-175 -61 0
-176 -62 0
-177 -63 0
-97 -64 0
-98 -65 0
-99 -66 0
-142 -64 0
-143 -65 0
-144 -66 0
-166 -64 0
-167 -65 0
-168 -66 0
-220 -64 0
-221 -65 0
-222 -66 0
-109 -67 0
-110 -68 0
-111 -69 0
-118 -67 0
-119 -68 0
-120 -69 0
-136 -67 0
-137 -68 0
-138 -69 0
-145 -67 0
-146 -68 0
-147 -69 0
-154 -67 0
-155 -68 0
-156 -69 0
-193 -67 0
-194 -68 0
-195 -69 0
-220 -67 0
-221 -68 0
-222 -69 0
-109 -70 0
-110 -71 0
-111 -72 0
-163 -70 0
-164 -71 0
-165 -72 0
-199 -70 0
-200 -71 0
-201 -72 0
-223 -70 0
-224 -71 0
-225 -72 0
-118 -73 0
-119 -74 0
-120 -75 0
-139 -73 0
-140 -74 0
-141 -75 0
-151 -76 0
-152 -77 0
-153 -78 0
-181 -76 0
-182 -77 0
-183 -78 0
-187 -76 0
-188 -77 0
-189 -78 0
-208 -76 0
-209 -77 0
-210 -78 0
-220 -76 0
-221 -77 0
-222 -78 0
-82 -79 0
-83 -80 0
-84 -81 0
-124 -79 0
-125 -80 0
-126 -81 0
-130 -79 0
-131 -80 0
-132 -81 0
-118 -82 0
-119 -83 0
-120 -84 0
-121 -82 0
-122 -83 0
-123 -84 0
-160 -82 0
-161 -83 0
-162 -84 0
-163 -82 0
-164 -83 0
-165 -84 0
-184 -82 0
-185 -83 0
-186 -84 0
-196 -82 0
-197 -83 0
-198 -84 0
-124 -85 0
-125 -86 0
-126 -87 0
-181 -85 0
-182 -86 0
-183 -87 0
-154 -88 0
-155 -89 0
-156 -90 0
-166 -88 0
-167 -89 0
-168 -90 0
-193 -88 0
-194 -89 0
-195 -90 0
-223 -88 0
-224 -89 0
-225 -90 0
-136 -91 0
-137 -92 0
-138 -93 0
-217 -91 0
-218 -92 0
-219 -93 0
-154 -94 0
-155 -95 0
-156 -96 0
-112 -97 0
-113 -98 0
-114 -99 0
-121 -97 0
-122 -98 0
-123 -99 0
-214 -100 0
-215 -101 0
-216 -102 0
-223 -100 0
-224 -101 0
-225 -102 0
-157 -103 0
-158 -104 0
-159 -105 0
-175 -103 0
-176 -104 0
-177 -105 0
-178 -103 0
-179 -104 0
-180 -105 0
-193 -103 0
-194 -104 0
-195 -105 0
-154 -106 0
-155 -107 0
-156 -108 0
-172 -106 0
-173 -107 0
-174 -108 0
-112 -109 0
-113 -110 0
-114 -111 0
-166 -109 0
-167 -110 0
-168 -111 0
-223 -109 0
-224 -110 0
-225 -111 0
-145 -112 0
-146 -113 0
-147 -114 0
-208 -112 0
-209 -113 0
-210 -114 0
-121 -118 0
-122 -119 0
-123 -120 0
-202 -118 0
-203 -119 0
-204 -120 0
-169 -121 0
-170 -122 0
-171 -123 0
-205 -121 0
-206 -122 0
-207 -123 0
-133 -124 0
-134 -125 0
-135 -126 0
-184 -124 0
-185 -125 0
-186 -126 0
-169 -127 0
-170 -128 0
-171 -129 0
-196 -127 0
-197 -128 0
-198 -129 0
-139 -130 0
-140 -131 0
-141 -132 0
-163 -130 0
-164 -131 0
-165 -132 0
-166 -133 0
-167 -134 0
-168 -135 0
-169 -133 0
-170 -134 0
-171 -135 0
-208 -133 0
-209 -134 0
-210 -135 0
-196 -139 0
-197 -140 0
-198 -141 0
-163 -142 0
-164 -143 0
-165 -144 0
-175 -142 0
-176 -143 0
-177 -144 0
-199 -145 0
-200 -146 0
-201 -147 0
-166 -148 0
-167 -149 0
-168 -150 0
-157 -151 0
-158 -152 0
-159 -153 0
-166 -151 0
-167 -152 0
-168 -153 0
-214 -151 0
-215 -152 0
-216 -153 0
-184 -154 0
-185 -155 0
-186 -156 0
-178 -157 0
-179 -158 0
-180 -159 0
-190 -160 0
-191 -161 0
-192 -162 0
-196 -160 0
-197 -161 0
-198 -162 0
-214 -160 0
-215 -161 0
-216 -162 0
-199 -163 0
-200 -164 0
-201 -165 0
-175 -169 0
-176 -170 0
-177 -171 0
-196 -169 0
-197 -170 0
-198 -171 0
-205 -172 0
-206 -173 0
-207 -174 0
-184 -175 0
-185 -176 0
-186 -177 0
-184 -178 0
-185 -179 0
-186 -180 0
-223 -178 0
-224 -179 0
-225 -180 0
-211 -184 0
-212 -185 0
-213 -186 0
-211 -190 0
-212 -191 0
-213 -192 0
-217 -193 0
-218 -194 0
-219 -195 0
-217 -205 0
-218 -206 0
-219 -207 0
-217 -208 0
-218 -209 0
-219 -210 0
